
List of user-set options:

                                    Name   Value                used
                           compl_inf_tol = 1                     yes
                         constr_viol_tol = 1                     yes
                            dual_inf_tol = 1000                  yes
                           linear_solver = ma97                  yes
                              ma86_small = 1e-30                  no
                                  ma86_u = 0.0001                 no
                              ma97_order = best                  yes
                              ma97_small = 1e-30                 yes
                            ma97_switch1 = at_start              yes
                            ma97_switch2 = od_hd_reuse           yes
                                  ma97_u = 1e-06                 yes
                               ma97_umax = 0.5                   yes
                                max_iter = 1000                  yes
                    max_refinement_steps = 20                    yes
                    min_refinement_steps = 5                     yes
                                 mu_init = 1e-06                 yes
           mu_superlinear_decrease_power = 1.25                  yes
                   nlp_scaling_min_value = 1e-08                 yes
                        option_file_name = Preset_Case_645_pf.opt  yes
                             output_file = ./tmp/Preset_Case_645_pf.output  yes
                      print_user_options = yes                   yes
        required_infeasibility_reduction = 1                      no
                                     tol = 1e-08                 yes
                   warm_start_bound_frac = 1e-20                 yes
                   warm_start_bound_push = 1e-20                 yes
                   warm_start_init_point = yes                   yes
              warm_start_mult_bound_push = 1e-20                 yes
                warm_start_mult_init_max = 1e+40                 yes
             warm_start_slack_bound_frac = 1e-20                 yes
             warm_start_slack_bound_push = 1e-20                 yes

******************************************************************************
This program contains Ipopt, a library for large-scale nonlinear optimization.
 Ipopt is released as open source code under the Eclipse Public License (EPL).
         For more information visit http://projects.coin-or.org/Ipopt
******************************************************************************

This is Ipopt version 3.12.10, running with linear solver ma97.

Number of nonzeros in equality constraint Jacobian...:   123442
Number of nonzeros in inequality constraint Jacobian.:      213
Number of nonzeros in Lagrangian Hessian.............:    49069

Total number of variables............................:    31591
                     variables with only lower bounds:    12912
                variables with lower and upper bounds:    15130
                     variables with only upper bounds:        0
Total number of equality constraints.................:    31483
Total number of inequality constraints...............:       25
        inequality constraints with only lower bounds:        4
   inequality constraints with lower and upper bounds:        0
        inequality constraints with only upper bounds:       21

iter    objective    inf_pr   inf_du lg(mu)  ||d||  lg(rg) alpha_du alpha_pr  ls
   0 -5.3691890e+00 4.04e-03 1.02e+00  -6.0 0.00e+00    -  0.00e+00 0.00e+00   0
   1 -5.3739264e+00 3.72e+00 2.12e+01  -6.0 3.30e+05    -  9.70e-05 8.99e-04h  1
   2 -5.3743913e+00 3.72e+00 4.20e+01  -6.0 6.15e+03    -  1.70e-01 6.89e-04f  1
   3 -5.3927809e+00 3.62e+00 3.76e+01  -6.0 6.11e+03    -  1.36e-02 2.79e-02h  1
   4 -5.3874800e+00 3.61e+00 5.70e+04  -6.0 1.57e+04    -  4.91e-04 1.95e-03h  7
   5 -5.6270853e+00 7.66e+01 4.05e+04  -6.0 5.94e+03    -  9.59e-02 4.02e-01h  1
   6 -5.7235578e+00 6.65e+01 5.28e+04  -6.0 1.19e+03    -  3.21e-02 1.32e-01h  1
   7 -5.8712032e+00 5.28e+01 6.64e+04  -6.0 1.94e+03    -  1.02e-01 2.74e-01h  1
   8 -5.9689755e+00 2.40e+01 4.20e+04  -6.0 3.37e+03    -  4.65e-01 6.42e-01h  1
   9 -6.1291139e+00 1.41e+01 1.81e+04  -6.0 1.33e+03    -  6.16e-01 7.08e-01h  1
iter    objective    inf_pr   inf_du lg(mu)  ||d||  lg(rg) alpha_du alpha_pr  ls
  10 -6.1052184e+00 1.17e+01 1.28e+06  -6.0 5.16e+01  -4.0 1.52e-02 1.66e-01h  1
  11 -5.9817990e+00 1.95e-01 9.52e+03  -6.0 1.39e+01  -4.5 1.36e-01 1.00e+00h  1
  12 -5.9881290e+00 9.11e-03 1.23e+01  -6.0 1.46e+01  -5.0 9.92e-01 1.00e+00h  1
  13 -5.9961989e+00 1.01e-01 3.86e+00  -6.0 4.00e+01  -5.4 1.00e+00 1.00e+00h  1
  14 -6.0062768e+00 2.30e-01 6.50e+00  -6.0 9.24e+01  -5.9 1.00e+00 4.78e-01h  1
  15 -6.0222678e+00 7.17e-01 3.37e+01  -6.0 1.76e+02  -6.4 1.00e+00 3.78e-01h  1
  16 -6.0377235e+00 5.88e-01 1.22e+02  -6.0 1.43e+03    -  4.31e-01 1.88e-01h  1
  17 -6.0386908e+00 5.73e-01 8.94e+01  -6.0 2.03e+02  -6.9 1.76e-01 2.82e-02h  1
  18 -6.0483355e+00 4.97e-01 2.81e+02  -6.0 2.69e+02    -  6.90e-01 1.88e-01f  1
  19 -6.0878055e+00 1.36e+00 7.26e+02  -6.0 2.68e+02  -7.3 3.98e-01 1.00e+00h  1
iter    objective    inf_pr   inf_du lg(mu)  ||d||  lg(rg) alpha_du alpha_pr  ls
  20 -6.0846700e+00 1.02e+00 5.38e+02  -6.0 2.78e+02    -  1.87e-01 2.50e-01h  1
  21 -6.0824663e+00 8.76e-01 1.96e+03  -6.0 2.73e+02    -  4.21e-01 5.91e-01H  1
  22 -6.0819734e+00 8.79e-01 1.86e+03  -6.0 7.49e+02  -7.8 1.23e-02 5.45e-02h  3
  23 -6.0839571e+00 7.93e-01 1.09e+03  -6.0 2.32e+02  -7.4 2.81e-01 4.15e-01h  1
  24 -6.0883721e+00 2.50e-01 1.29e+01  -6.0 7.59e+01  -7.0 1.00e+00 1.00e+00h  1
  25 -6.0952098e+00 1.32e+00 5.49e+01  -6.0 2.10e+02  -7.4 3.12e-01 1.00e+00h  1
  26 -6.1029887e+00 4.00e-01 8.27e+02  -6.0 1.18e+02  -7.0 1.97e-01 1.00e+00h  1
  27 -6.1109799e+00 1.31e+00 6.36e+02  -6.0 8.14e+02  -7.5 1.69e-01 2.27e-01h  1
  28 -6.1140307e+00 2.60e-01 4.13e+04  -6.0 1.28e+02  -7.1 3.01e-01 1.00e+00h  1
  29 -6.1201287e+00 4.69e-01 1.99e+02  -6.0 1.27e+02  -6.6 1.00e+00 1.00e+00h  1
iter    objective    inf_pr   inf_du lg(mu)  ||d||  lg(rg) alpha_du alpha_pr  ls
  30 -6.1294255e+00 9.32e-01 2.82e+03  -6.0 3.68e+02  -7.1 6.36e-01 4.12e-01h  1
  31 -6.1474437e+00 6.03e+00 1.32e+05  -6.0 7.83e+02  -7.6 1.23e-01 1.00e+00h  1
  32 -6.1475015e+00 3.05e-02 8.80e+01  -6.0 1.54e+01  -5.4 8.18e-01 1.00e+00h  1
  33 -6.1704386e+00 2.72e+00 5.30e+02  -6.0 2.59e+03    -  4.65e-01 3.12e-01h  1
  34 -6.1688629e+00 1.78e-01 1.50e+00  -6.0 4.22e+01  -5.8 1.00e+00 1.00e+00h  1
  35 -6.1695116e+00 4.71e-03 9.90e-02  -6.0 6.83e+00  -5.4 9.77e-01 1.00e+00h  1
  36 -6.1708051e+00 1.10e-02 4.41e-01  -6.0 1.97e+01  -5.9 1.00e+00 1.00e+00h  1
  37 -6.1722253e+00 2.01e-02 4.85e+00  -6.0 5.74e+01  -6.4 1.00e+00 3.78e-01h  1
  38 -6.1826266e+00 7.06e-01 1.63e+01  -6.0 1.58e+02  -6.8 2.41e-01 1.00e+00f  1
  39 -6.1960843e+00 1.14e+00 1.68e+01  -6.0 1.60e+03    -  1.89e-01 1.98e-01h  1
iter    objective    inf_pr   inf_du lg(mu)  ||d||  lg(rg) alpha_du alpha_pr  ls
  40 -6.2017596e+00 8.69e-01 5.77e+01  -6.0 1.28e+03    -  3.00e-01 6.54e-01h  1
  41 -6.2072021e+00 8.17e-01 8.36e+01  -6.0 1.56e+03    -  4.83e-03 6.03e-02h  1
  42 -6.2043326e+00 7.67e-01 1.28e+02  -6.0 4.27e+02    -  4.56e-06 5.41e-02H  1
  43 -6.2094955e+00 1.02e+00 1.29e+02  -6.0 4.53e+02    -  5.81e-01 1.00e+00h  1
  44 -6.2077079e+00 2.64e-01 4.45e+00  -6.0 9.07e+01    -  1.00e+00 1.00e+00h  1
  45 -6.2062668e+00 4.00e-03 5.62e+00  -6.0 9.85e+00    -  9.01e-01 1.00e+00h  1
  46 -6.2061590e+00 5.05e-04 2.77e-02  -6.0 3.50e+00    -  1.00e+00 1.00e+00h  1
  47 -6.2061361e+00 4.66e-05 2.16e-03  -6.0 1.06e+00    -  1.00e+00 1.00e+00h  1
  48 -6.2061347e+00 2.15e-07 1.01e-05  -6.0 7.24e-02    -  1.00e+00 1.00e+00h  1
  49 -6.2062013e+00 1.35e-02 6.05e+01  -7.5 3.71e+01    -  9.55e-01 7.46e-01h  1
iter    objective    inf_pr   inf_du lg(mu)  ||d||  lg(rg) alpha_du alpha_pr  ls
  50 -6.2062080e+00 3.27e-03 1.11e+01  -7.5 9.89e+00    -  1.00e+00 8.50e-01h  1
  51 -6.2062080e+00 3.68e-05 1.11e-02  -7.5 1.44e+00    -  1.00e+00 1.00e+00h  1
  52 -6.2062080e+00 2.18e-10 2.76e-09  -7.5 1.08e-03    -  1.00e+00 1.00e+00h  1
  53 -6.2062095e+00 1.84e-05 6.64e-01  -9.0 1.20e+00    -  9.22e-01 8.50e-01h  1
  54 -6.2062098e+00 5.75e-07 4.31e-01  -9.0 1.81e-01    -  8.91e-01 1.00e+00f  1
  55 -6.2062098e+00 4.27e-10 1.58e-08  -9.0 3.57e-05    -  1.00e+00 1.00e+00h  1
  56 -6.2062098e+00 4.27e-10 2.27e-10  -9.0 7.55e-06    -  1.00e+00 1.00e+00h  1

Number of Iterations....: 56

                                   (scaled)                 (unscaled)
Objective...............:  -4.8486013990728738e+00   -6.2062097908132783e+00
Dual infeasibility......:   2.2666041303177751e-10    2.9012532868067519e-10
Constraint violation....:   4.2704088594296141e-10    4.2704088594296141e-10
Complementarity.........:   9.2355959132514220e-10    1.1821562768961819e-09
Overall NLP error.......:   9.2355959132514220e-10    1.1821562768961819e-09


Number of objective function evaluations             = 72
Number of objective gradient evaluations             = 57
Number of equality constraint evaluations            = 72
Number of inequality constraint evaluations          = 72
Number of equality constraint Jacobian evaluations   = 57
Number of inequality constraint Jacobian evaluations = 57
Number of Lagrangian Hessian evaluations             = 56
Total CPU secs in IPOPT (w/o function evaluations)   =    143.365
Total CPU secs in NLP function evaluations           =      2.160

EXIT: Optimal Solution Found.
